6038,6048
2688,2698
4811,4821
8089,8099
7723,7733
1069,1079
7896,7906
2918,2928
4693,4703
2326,2336
3820,3830
9961,9971
3052,3062
1733,1743
4354,4364
3509,3519
9146,9156
2394,2404
2115,2125
7533,7543
1932,1942
9900,9910
667,677
3481,3491
1121,1131
9453,9463
532,542
9900,9910
3407,3417
1403,1413
7772,7782
2462,2472
1531,1541
917,927
1513,1523
9859,9869
2768,2778
4596,4606
1828,1838
7002,7012
1406,1416
8787,8797
498,508
1316,1326
7253,7263
8893,8903
4375,4385
9088,9098
4414,4424
6457,6467
4206,4216
800,810
9090,9100
4487,4497
5956,5966
7091,7101
2757,2767
3825,3835
6241,6251
5930,5940
9386,9396
7374,7384
3315,3325
1251,1261
3510,3520
5841,5851
1977,1987
8325,8335
2163,2173
6161,6171
9930,9940
1251,1261
4702,4712
718,728
6725,6735

18603
3630
6863
19481
9896
12263
23761
467
15999
14482
